NAME : random_4
COMMENT : 33 random nodes
TYPE : TSP
DIMENSION : 33
EDGE_WEIGHT_TYPE : EUC_2D
NODE_COORD_SECTION
1 -2261 1704
2 -1477 -1326
3 3420 2595
4 988 587
5 2769 4429
6 -548 553
7 -76 -1498
8 784 4219
9 1642 -2739
10 4003 3742
11 -1855 1495
12 589 -1740
13 -1412 1577
14 -2666 1743
15 -1139 -799
16 2892 -2404
17 1195 -2491
18 3009 530
19 804 3010
20 -474 9
21 1766 -903
22 1635 -2185
23 1614 1892
24 -1709 -2256
25 2537 2219
26 -2715 -2719
27 2454 2253
28 2072 2246
29 3091 1287
30 -1234 -611
31 2933 1050
32 2396 114
33 3220 363
EOF